(set-logic ALL)
(declare-var d1 (BitVec 32))
(declare-var d1! (BitVec 32))
(declare-var d2 (BitVec 32))
(declare-var d2! (BitVec 32))
(declare-var d3 (BitVec 32))
(declare-var d3! (BitVec 32))
(declare-var conf_0 (BitVec 32))
(declare-var conf_0! (BitVec 32))
(declare-var conf_1 (BitVec 32))
(declare-var conf_1! (BitVec 32))
(declare-var conf_2 (BitVec 32))
(declare-var conf_2! (BitVec 32))
(declare-var conf_3 (BitVec 32))
(declare-var conf_3! (BitVec 32))
(declare-var conf_4 (BitVec 32))
(declare-var conf_4! (BitVec 32))
(declare-var x1 (BitVec 32))
(declare-var x1! (BitVec 32))
(declare-var x2 (BitVec 32))
(declare-var x2! (BitVec 32))
(declare-var x3 (BitVec 32))
(declare-var x3! (BitVec 32))
(declare-var d1_0 (BitVec 32))
(declare-var d1_0! (BitVec 32))
(declare-var d1_1 (BitVec 32))
(declare-var d1_1! (BitVec 32))
(declare-var d2_0 (BitVec 32))
(declare-var d2_0! (BitVec 32))
(declare-var d2_1 (BitVec 32))
(declare-var d2_1! (BitVec 32))
(declare-var d3_0 (BitVec 32))
(declare-var d3_0! (BitVec 32))
(declare-var d3_1 (BitVec 32))
(declare-var d3_1! (BitVec 32))
(declare-var conf_0_0 (BitVec 32))
(declare-var conf_0_0! (BitVec 32))
(declare-var conf_1_0 (BitVec 32))
(declare-var conf_1_0! (BitVec 32))
(declare-var conf_1_1 (BitVec 32))
(declare-var conf_1_1! (BitVec 32))
(declare-var conf_1_2 (BitVec 32))
(declare-var conf_1_2! (BitVec 32))
(declare-var conf_1_3 (BitVec 32))
(declare-var conf_1_3! (BitVec 32))
(declare-var conf_2_0 (BitVec 32))
(declare-var conf_2_0! (BitVec 32))
(declare-var conf_3_0 (BitVec 32))
(declare-var conf_3_0! (BitVec 32))
(declare-var conf_3_1 (BitVec 32))
(declare-var conf_3_1! (BitVec 32))
(declare-var conf_3_2 (BitVec 32))
(declare-var conf_3_2! (BitVec 32))
(declare-var conf_3_3 (BitVec 32))
(declare-var conf_3_3! (BitVec 32))
(declare-var conf_4_0 (BitVec 32))
(declare-var conf_4_0! (BitVec 32))
(declare-var conf_4_1 (BitVec 32))
(declare-var conf_4_1! (BitVec 32))
(declare-var conf_4_2 (BitVec 32))
(declare-var conf_4_2! (BitVec 32))
(declare-var conf_4_3 (BitVec 32))
(declare-var conf_4_3! (BitVec 32))
(declare-var x1_0 (BitVec 32))
(declare-var x1_0! (BitVec 32))
(declare-var x1_1 (BitVec 32))
(declare-var x1_1! (BitVec 32))
(declare-var x1_2 (BitVec 32))
(declare-var x1_2! (BitVec 32))
(declare-var x1_3 (BitVec 32))
(declare-var x1_3! (BitVec 32))
(declare-var x1_4 (BitVec 32))
(declare-var x1_4! (BitVec 32))
(declare-var x2_0 (BitVec 32))
(declare-var x2_0! (BitVec 32))
(declare-var x2_1 (BitVec 32))
(declare-var x2_1! (BitVec 32))
(declare-var x2_2 (BitVec 32))
(declare-var x2_2! (BitVec 32))
(declare-var x2_3 (BitVec 32))
(declare-var x2_3! (BitVec 32))
(declare-var x3_0 (BitVec 32))
(declare-var x3_0! (BitVec 32))
(declare-var x3_1 (BitVec 32))
(declare-var x3_1! (BitVec 32))
(declare-var x3_2 (BitVec 32))
(declare-var x3_2! (BitVec 32))
(declare-var x3_3 (BitVec 32))
(declare-var x3_3! (BitVec 32))
(synth-fun inv-f((parameter0 (BitVec 32))(parameter1 (BitVec 32))(parameter2 (BitVec 32))(parameter3 (BitVec 32))(parameter4 (BitVec 32))(parameter5 (BitVec 32))(parameter6 (BitVec 32))(parameter7 (BitVec 32))(parameter8 (BitVec 32))(parameter9 (BitVec 32))(parameter10 (BitVec 32))(parameter11 (BitVec 32))(parameter12 (BitVec 32))(parameter13 (BitVec 32))(parameter14 (BitVec 32))(parameter15 (BitVec 32))(parameter16 (BitVec 32))(parameter17 (BitVec 32))(parameter18 (BitVec 32))(parameter19 (BitVec 32))(parameter20 (BitVec 32))(parameter21 (BitVec 32))(parameter22 (BitVec 32))(parameter23 (BitVec 32))(parameter24 (BitVec 32))(parameter25 (BitVec 32))(parameter26 (BitVec 32))(parameter27 (BitVec 32))(parameter28 (BitVec 32))(parameter29 (BitVec 32))(parameter30 (BitVec 32))(parameter31 (BitVec 32))(parameter32 (BitVec 32))(parameter33 (BitVec 32))(parameter34 (BitVec 32))(parameter35 (BitVec 32))(parameter36 (BitVec 32))(parameter37 (BitVec 32))(parameter38 (BitVec 32))(parameter39 (BitVec 32))(parameter40 (BitVec 32))(parameter41 (BitVec 32))(parameter42 (BitVec 32))(parameter43 (BitVec 32)))Bool) 
(constraint (=> (and (and (and (and (and (and (and (and (and (and (and (and (and (and (and (and (and (= d1 d1_1) (= d2 d2_1) ) (= d3 d3_1) ) (= conf_0 conf_0_0) ) (= conf_1 conf_1_0) ) (= conf_2 conf_2_0) ) (= conf_3 conf_3_0) ) (= conf_4 conf_4_0) ) (= x1 x1_1) ) (= conf_0_0 (_ bv4 32)) ) (= conf_1_0 (_ bv8 32)) ) (= conf_2_0 (_ bv5 32)) ) (= conf_3_0 (_ bv9 32)) ) (= conf_4_0 (_ bv7 32)) ) (= d1_1 (_ bv1 32)) ) (= d2_1 (_ bv1 32)) ) (= d3_1 (_ bv1 32)) ) (= x1_1 (_ bv1 32)) )(inv-f d1 d2 d3 conf_0 conf_1 conf_2 conf_3 conf_4 x1 x2 x3 d1_0 d1_1 d2_0 d2_1 d3_0 d3_1 conf_0_0 conf_1_0 conf_1_1 conf_1_2 conf_1_3 conf_2_0 conf_3_0 conf_3_1 conf_3_2 conf_3_3 conf_4_0 conf_4_1 conf_4_2 conf_4_3 x1_0 x1_1 x1_2 x1_3 x1_4 x2_0 x2_1 x2_2 x2_3 x3_0 x3_1 x3_2 x3_3 )))
(constraint (=> (and (inv-f d1 d2 d3 conf_0 conf_1 conf_2 conf_3 conf_4 x1 x2 x3 d1_0 d1_1 d2_0 d2_1 d3_0 d3_1 conf_0_0 conf_1_0 conf_1_1 conf_1_2 conf_1_3 conf_2_0 conf_3_0 conf_3_1 conf_3_2 conf_3_3 conf_4_0 conf_4_1 conf_4_2 conf_4_3 x1_0 x1_1 x1_2 x1_3 x1_4 x2_0 x2_1 x2_2 x2_3 x3_0 x3_1 x3_2 x3_3 ) (or (and (and (and (and (and (and (and (and (and (and (and (and (and (and (and (and (and (and (and (and (and (= conf_1_1 conf_1) (= conf_3_1 conf_3) ) (= conf_4_1 conf_4) ) (= x1_2 x1) ) (= x2_1 x2) ) (= x3_1 x3) ) (= conf_1_1 conf_1!) ) (= conf_3_1 conf_3!) ) (= conf_4_1 conf_4!) ) (= x1_2 x1!) ) (= x2_1 x2!) ) (= x3_1 x3!) ) (= d1 d1!) ) (= d2 d2!) ) (= d3 d3!) ) (= conf_0 conf_0!) ) (= conf_1 conf_1!) ) (= conf_2 conf_2!) ) (= conf_3 conf_3!) ) (= conf_4 conf_4!) ) (= x2 x2!) ) (= x3 x3!) ) (and (and (and (and (and (and (and (and (and (and (and (and (and (and (and (and (and (and (and (and (and (and (and (not (bvugt x1_2 (_ bv0 32))) (not (bvuge x2_1 (_ bv0 32))) ) (= d1 d1_1) ) (= d1! d1_1) ) (= d2 d2_1) ) (= d2! d2_1) ) (= d3 d3_1) ) (= d3! d3_1) ) (= conf_0 conf_0_0) ) (= conf_0! conf_0_0) ) (= conf_1 conf_1_0) ) (= conf_1! conf_1_0) ) (= conf_2 conf_2_0) ) (= conf_2! conf_2_0) ) (= conf_3 conf_3_0) ) (= conf_3! conf_3_0) ) (= conf_4 conf_4_0) ) (= conf_4! conf_4_0) ) (= x1 x1_1) ) (= x1! x1_1) ) (= x2 x2_0) ) (= x2! x2_0) ) (= x3 x3_0) ) (= x3! x3_0) ) ) )(inv-f d1! d2! d3! conf_0! conf_1! conf_2! conf_3! conf_4! x1! x2! x3! d1_0! d1_1! d2_0! d2_1! d3_0! d3_1! conf_0_0! conf_1_0! conf_1_1! conf_1_2! conf_1_3! conf_2_0! conf_3_0! conf_3_1! conf_3_2! conf_3_3! conf_4_0! conf_4_1! conf_4_2! conf_4_3! x1_0! x1_1! x1_2! x1_3! x1_4! x2_0! x2_1! x2_2! x2_3! x3_0! x3_1! x3_2! x3_3! )))
(constraint (=> (inv-f d1 d2 d3 conf_0 conf_1 conf_2 conf_3 conf_4 x1 x2 x3 d1_0 d1_1 d2_0 d2_1 d3_0 d3_1 conf_0_0 conf_1_0 conf_1_1 conf_1_2 conf_1_3 conf_2_0 conf_3_0 conf_3_1 conf_3_2 conf_3_3 conf_4_0 conf_4_1 conf_4_2 conf_4_3 x1_0 x1_1 x1_2 x1_3 x1_4 x2_0 x2_1 x2_2 x2_3 x3_0 x3_1 x3_2 x3_3 )(and (and (or (not (and (and (and (and (and (and (and (and (and (and (= d1 d1_1) (= d2 d2_1) ) (= d3 d3_1) ) (= conf_0 conf_0_0) ) (= conf_1 conf_1_1) ) (= conf_2 conf_2_0) ) (= conf_3 conf_3_1) ) (= conf_4 conf_4_1) ) (= x1 x1_2) ) (= x2 x2_1) ) (= x3 x3_1) )) (not (and (and (and (and (and (and (and (and (and (and (and (and (and (and (and (and (and (and (and (and (and (and (not (bvugt x1_2 (_ bv0 32))) (bvugt x2_1 (_ bv0 32)) ) (bvugt x3_1 (_ bv0 32)) ) (= x1_3 (bvsub x1_2 d1_1)) ) (= conf_1_2 (bvadd conf_4_1 (_ bv828 32))) ) (= x2_2 (bvsub x2_1 d2_1)) ) (= conf_4_2 (bvadd conf_4_1 (_ bv435 32))) ) (= x3_2 (bvsub x3_1 d3_1)) ) (= conf_3_2 (bvsub conf_2_0 (_ bv854 32))) ) (= conf_1_3 conf_1_2) ) (= conf_3_3 conf_3_2) ) (= conf_4_3 conf_4_2) ) (= x1_4 x1_3) ) (= x2_3 x2_2) ) (= x3_3 x3_2) ) (= conf_1_1 conf_1_3) ) (= conf_3_1 conf_3_3) ) (= conf_4_1 conf_4_3) ) (= x1_2 x1_4) ) (= x2_1 x2_3) ) (= x3_1 x3_3) ) (not (bvugt x1_2 (_ bv0 32))) ) (not (bvuge x2_1 (_ bv0 32))) )) ) (or (not (and (and (and (and (and (and (and (and (and (and (= d1 d1_1) (= d2 d2_1) ) (= d3 d3_1) ) (= conf_0 conf_0_0) ) (= conf_1 conf_1_1) ) (= conf_2 conf_2_0) ) (= conf_3 conf_3_1) ) (= conf_4 conf_4_1) ) (= x1 x1_2) ) (= x2 x2_1) ) (= x3 x3_1) )) (not (and (and (and (and (and (and (and (and (and (and (and (and (and (and (and (and (not (bvugt x1_2 (_ bv0 32))) (bvugt x2_1 (_ bv0 32)) ) (not (bvugt x3_1 (_ bv0 32))) ) (= conf_1_3 conf_1_1) ) (= conf_3_3 conf_3_1) ) (= conf_4_3 conf_4_1) ) (= x1_4 x1_2) ) (= x2_3 x2_1) ) (= x3_3 x3_1) ) (= conf_1_1 conf_1_3) ) (= conf_3_1 conf_3_3) ) (= conf_4_1 conf_4_3) ) (= x1_2 x1_4) ) (= x2_1 x2_3) ) (= x3_1 x3_3) ) (not (bvugt x1_2 (_ bv0 32))) ) (not (bvuge x2_1 (_ bv0 32))) )) ) ) (or (not (and (and (and (and (and (and (and (and (and (and (= d1 d1_1) (= d2 d2_1) ) (= d3 d3_1) ) (= conf_0 conf_0_0) ) (= conf_1 conf_1_1) ) (= conf_2 conf_2_0) ) (= conf_3 conf_3_1) ) (= conf_4 conf_4_1) ) (= x1 x1_2) ) (= x2 x2_1) ) (= x3 x3_1) )) (not (and (and (and (and (and (and (and (and (and (and (and (and (and (and (and (not (bvugt x1_2 (_ bv0 32))) (not (bvugt x2_1 (_ bv0 32))) ) (= conf_1_3 conf_1_1) ) (= conf_3_3 conf_3_1) ) (= conf_4_3 conf_4_1) ) (= x1_4 x1_2) ) (= x2_3 x2_1) ) (= x3_3 x3_1) ) (= conf_1_1 conf_1_3) ) (= conf_3_1 conf_3_3) ) (= conf_4_1 conf_4_3) ) (= x1_2 x1_4) ) (= x2_1 x2_3) ) (= x3_1 x3_3) ) (not (bvugt x1_2 (_ bv0 32))) ) (not (bvuge x2_1 (_ bv0 32))) )) ) )))
(check-synth)

